cleaned_string_benchmarks/SV-COMP/17663_jbmc-regression_CharSequenceToString_Main_14.smt2
(declare-const _string0 String)
(assert (= _string0 "case1"))
(assert (distinct ((_ int2bv 32) (str.len _string0)) #xffffffff))
(assert (distinct ((_ int2bv 32) (str.len _string0)) #x00000005))
(assert (and (and true (<= 0 (str.len _string0))) (<= (str.len _string0) 10000)))
(check-sat)
