cleaned_string_benchmarks/operator-statistics/sv-comp/17663_jbmc-regression_CharSequenceToString_Main_14.out
==	2
&&	2
<=	2
not	2
str.len	4
assert	4
variable	1
casting	2
=	1
